p cnf 909
-16 -282
-17 -285
-18 -288
-19 -291
-20 -294
-21 -297
-22 -300
-23 -303
-24 -306
-25 -309
-26 -312
-27 -315
-28 -318
-29 -321
-30 -324
-31 325
-32 326
-33 327
-34 328
-35 329
-36 -17
-36 -18
17 18 36
-37 -19
-37 -20
19 20 37
-38 -21
-38 -22
21 22 38
-39 -23
-39 -24
23 24 39
-40 -25
-40 -26
25 26 40
-41 -27
-41 -28
27 28 41
-42 -29
-42 -30
29 30 42
-43 -31
-43 -32
31 32 43
-44 -33
-44 -34
33 34 44
-45 36
-45 37
-36 -37 45
-46 38
-46 39
-38 -39 46
-47 40
-47 41
-40 -41 47
-48 42
-48 43
-42 -43 48
-49 -35
-49 44
35 -44 49
-50 45
-50 46
-45 -46 50
-51 47
-51 48
-47 -48 51
-52 50
-52 51
-50 -51 52
-53 49
-53 52
-49 -52 53
-54 -16
-54 17
16 -17 54
-55 16
-55 -17
-16 17 55
-56 -54
-56 -55
54 55 56
-57 16
-57 17
-16 -17 57
-58 -16
-58 -56
16 56 58
-59 16
-59 56
-16 -56 59
-60 -58
-60 -59
58 59 60
-61 16
-61 -56
-16 56 61
-62 -57
-62 -61
57 61 62
-63 -17
-63 18
17 -18 63
-64 17
-64 -18
-17 18 64
-65 -63
-65 -64
63 64 65
-66 17
-66 18
-17 -18 66
-67 62
-67 -65
-62 65 67
-68 -62
-68 65
62 -65 68
-69 -67
-69 -68
67 68 69
-70 -62
-70 -65
62 65 70
-71 -66
-71 -70
66 70 71
-72 -18
-72 19
18 -19 72
-73 18
-73 -19
-18 19 73
-74 -72
-74 -73
72 73 74
-75 18
-75 19
-18 -19 75
-76 71
-76 -74
-71 74 76
-77 -71
-77 74
71 -74 77
-78 -76
-78 -77
76 77 78
-79 -71
-79 -74
71 74 79
-80 -75
-80 -79
75 79 80
-81 -19
-81 20
19 -20 81
-82 19
-82 -20
-19 20 82
-83 -81
-83 -82
81 82 83
-84 19
-84 20
-19 -20 84
-85 80
-85 -83
-80 83 85
-86 -80
-86 83
80 -83 86
-87 -85
-87 -86
85 86 87
-88 -80
-88 -83
80 83 88
-89 -84
-89 -88
84 88 89
-90 -20
-90 21
20 -21 90
-91 20
-91 -21
-20 21 91
-92 -90
-92 -91
90 91 92
-93 20
-93 21
-20 -21 93
-94 89
-94 -92
-89 92 94
-95 -89
-95 92
89 -92 95
-96 -94
-96 -95
94 95 96
-97 -89
-97 -92
89 92 97
-98 -93
-98 -97
93 97 98
-99 -21
-99 22
21 -22 99
-100 21
-100 -22
-21 22 100
-101 -99
-101 -100
99 100 101
-102 21
-102 22
-21 -22 102
-103 98
-103 -101
-98 101 103
-104 -98
-104 101
98 -101 104
-105 -103
-105 -104
103 104 105
-106 -98
-106 -101
98 101 106
-107 -102
-107 -106
102 106 107
-108 -22
-108 23
22 -23 108
-109 22
-109 -23
-22 23 109
-110 -108
-110 -109
108 109 110
-111 22
-111 23
-22 -23 111
-112 107
-112 -110
-107 110 112
-113 -107
-113 110
107 -110 113
-114 -112
-114 -113
112 113 114
-115 -107
-115 -110
107 110 115
-116 -111
-116 -115
111 115 116
-117 -23
-117 24
23 -24 117
-118 23
-118 -24
-23 24 118
-119 -117
-119 -118
117 118 119
-120 23
-120 24
-23 -24 120
-121 116
-121 -119
-116 119 121
-122 -116
-122 119
116 -119 122
-123 -121
-123 -122
121 122 123
-124 -116
-124 -119
116 119 124
-125 -120
-125 -124
120 124 125
-126 -24
-126 25
24 -25 126
-127 24
-127 -25
-24 25 127
-128 -126
-128 -127
126 127 128
-129 24
-129 25
-24 -25 129
-130 125
-130 -128
-125 128 130
-131 -125
-131 128
125 -128 131
-132 -130
-132 -131
130 131 132
-133 -125
-133 -128
125 128 133
-134 -129
-134 -133
129 133 134
-135 -25
-135 26
25 -26 135
-136 25
-136 -26
-25 26 136
-137 -135
-137 -136
135 136 137
-138 25
-138 26
-25 -26 138
-139 134
-139 -137
-134 137 139
-140 -134
-140 137
134 -137 140
-141 -139
-141 -140
139 140 141
-142 -134
-142 -137
134 137 142
-143 -138
-143 -142
138 142 143
-144 -26
-144 27
26 -27 144
-145 26
-145 -27
-26 27 145
-146 -144
-146 -145
144 145 146
-147 26
-147 27
-26 -27 147
-148 143
-148 -146
-143 146 148
-149 -143
-149 146
143 -146 149
-150 -148
-150 -149
148 149 150
-151 -143
-151 -146
143 146 151
-152 -147
-152 -151
147 151 152
-153 -27
-153 28
27 -28 153
-154 27
-154 -28
-27 28 154
-155 -153
-155 -154
153 154 155
-156 27
-156 28
-27 -28 156
-157 152
-157 -155
-152 155 157
-158 -152
-158 155
152 -155 158
-159 -157
-159 -158
157 158 159
-160 -152
-160 -155
152 155 160
-161 -156
-161 -160
156 160 161
-162 -28
-162 29
28 -29 162
-163 28
-163 -29
-28 29 163
-164 -162
-164 -163
162 163 164
-165 28
-165 29
-28 -29 165
-166 161
-166 -164
-161 164 166
-167 -161
-167 164
161 -164 167
-168 -166
-168 -167
166 167 168
-169 -161
-169 -164
161 164 169
-170 -165
-170 -169
165 169 170
-171 -29
-171 30
29 -30 171
-172 29
-172 -30
-29 30 172
-173 -171
-173 -172
171 172 173
-174 29
-174 30
-29 -30 174
-175 170
-175 -173
-170 173 175
-176 -170
-176 173
170 -173 176
-177 -175
-177 -176
175 176 177
-178 -170
-178 -173
170 173 178
-179 -174
-179 -178
174 178 179
-180 -30
-180 31
30 -31 180
-181 30
-181 -31
-30 31 181
-182 -180
-182 -181
180 181 182
-183 30
-183 31
-30 -31 183
-184 179
-184 -182
-179 182 184
-185 -179
-185 182
179 -182 185
-186 -184
-186 -185
184 185 186
-187 -179
-187 -182
179 182 187
-188 -183
-188 -187
183 187 188
-189 -31
-189 32
31 -32 189
-190 31
-190 -32
-31 32 190
-191 -189
-191 -190
189 190 191
-192 31
-192 32
-31 -32 192
-193 188
-193 -191
-188 191 193
-194 -188
-194 191
188 -191 194
-195 -193
-195 -194
193 194 195
-196 -188
-196 -191
188 191 196
-197 -192
-197 -196
192 196 197
-198 -32
-198 33
32 -33 198
-199 32
-199 -33
-32 33 199
-200 -198
-200 -199
198 199 200
-201 32
-201 33
-32 -33 201
-202 197
-202 -200
-197 200 202
-203 -197
-203 200
197 -200 203
-204 -202
-204 -203
202 203 204
-205 -197
-205 -200
197 200 205
-206 -201
-206 -205
201 205 206
-207 -33
-207 34
33 -34 207
-208 33
-208 -34
-33 34 208
-209 -207
-209 -208
207 208 209
-210 33
-210 34
-33 -34 210
-211 206
-211 -209
-206 209 211
-212 -206
-212 209
206 -209 212
-213 -211
-213 -212
211 212 213
-214 -206
-214 -209
206 209 214
-215 -210
-215 -214
210 214 215
-216 -34
-216 35
34 -35 216
-217 34
-217 -35
-34 35 217
-218 -216
-218 -217
216 217 218
-219 34
-219 35
-34 -35 219
-220 215
-220 -218
-215 218 220
-221 -215
-221 218
215 -218 221
-222 -220
-222 -221
220 221 222
-223 -215
-223 -218
215 218 223
-224 -219
-224 -223
219 223 224
-225 16
-225 -60
-16 60 225
-226 -16
-226 18
16 -18 226
-227 -225
-227 -226
225 226 227
-228 16
-228 -69
-16 69 228
-229 -16
-229 19
16 -19 229
-230 -228
-230 -229
228 229 230
-231 16
-231 -78
-16 78 231
-232 -16
-232 20
16 -20 232
-233 -231
-233 -232
231 232 233
-234 16
-234 -87
-16 87 234
-235 -16
-235 21
16 -21 235
-236 -234
-236 -235
234 235 236
-237 16
-237 -96
-16 96 237
-238 -16
-238 22
16 -22 238
-239 -237
-239 -238
237 238 239
-240 16
-240 -105
-16 105 240
-241 -16
-241 23
16 -23 241
-242 -240
-242 -241
240 241 242
-243 16
-243 -114
-16 114 243
-244 -16
-244 24
16 -24 244
-245 -243
-245 -244
243 244 245
-246 16
-246 -123
-16 123 246
-247 -16
-247 25
16 -25 247
-248 -246
-248 -247
246 247 248
-249 16
-249 -132
-16 132 249
-250 -16
-250 26
16 -26 250
-251 -249
-251 -250
249 250 251
-252 16
-252 -141
-16 141 252
-253 -16
-253 27
16 -27 253
-254 -252
-254 -253
252 253 254
-255 16
-255 -150
-16 150 255
-256 -16
-256 28
16 -28 256
-257 -255
-257 -256
255 256 257
-258 16
-258 -159
-16 159 258
-259 -16
-259 29
16 -29 259
-260 -258
-260 -259
258 259 260
-261 16
-261 -168
-16 168 261
-262 -16
-262 30
16 -30 262
-263 -261
-263 -262
261 262 263
-264 16
-264 -177
-16 177 264
-265 -16
-265 31
16 -31 265
-266 -264
-266 -265
264 265 266
-267 16
-267 -186
-16 186 267
-268 -16
-268 32
16 -32 268
-269 -267
-269 -268
267 268 269
-270 16
-270 -195
-16 195 270
-271 -16
-271 33
16 -33 271
-272 -270
-272 -271
270 271 272
-273 16
-273 -204
-16 204 273
-274 -16
-274 34
16 -34 274
-275 -273
-275 -274
273 274 275
-276 16
-276 -213
-16 213 276
-277 -16
-277 35
16 -35 277
-278 -276
-278 -277
276 277 278
-279 16
-279 -222
-16 222 279
-280 1
-280 53
-1 -53 280
-281 -53
-281 54
53 -54 281
-282 -280
-282 -281
280 281 282
-283 2
-283 53
-2 -53 283
-284 -53
-284 -227
53 227 284
-285 -283
-285 -284
283 284 285
-286 3
-286 53
-3 -53 286
-287 -53
-287 -230
53 230 287
-288 -286
-288 -287
286 287 288
-289 4
-289 53
-4 -53 289
-290 -53
-290 -233
53 233 290
-291 -289
-291 -290
289 290 291
-292 5
-292 53
-5 -53 292
-293 -53
-293 -236
53 236 293
-294 -292
-294 -293
292 293 294
-295 6
-295 53
-6 -53 295
-296 -53
-296 -239
53 239 296
-297 -295
-297 -296
295 296 297
-298 7
-298 53
-7 -53 298
-299 -53
-299 -242
53 242 299
-300 -298
-300 -299
298 299 300
-301 8
-301 53
-8 -53 301
-302 -53
-302 -245
53 245 302
-303 -301
-303 -302
301 302 303
-304 9
-304 53
-9 -53 304
-305 -53
-305 -248
53 248 305
-306 -304
-306 -305
304 305 306
-307 10
-307 53
-10 -53 307
-308 -53
-308 -251
53 251 308
-309 -307
-309 -308
307 308 309
-310 11
-310 53
-11 -53 310
-311 -53
-311 -254
53 254 311
-312 -310
-312 -311
310 311 312
-313 12
-313 53
-12 -53 313
-314 -53
-314 -257
53 257 314
-315 -313
-315 -314
313 314 315
-316 13
-316 53
-13 -53 316
-317 -53
-317 -260
53 260 317
-318 -316
-318 -317
316 317 318
-319 14
-319 53
-14 -53 319
-320 -53
-320 -263
53 263 320
-321 -319
-321 -320
319 320 321
-322 15
-322 53
-15 -53 322
-323 -53
-323 -266
53 266 323
-324 -322
-324 -323
322 323 324
-325 -53
-325 -269
53 269 325
-326 -53
-326 -272
53 272 326
-327 -53
-327 -275
53 275 327
-328 -53
-328 -278
53 278 328
-329 -53
-329 279
53 -279 329
-330 -35
-330 224
35 -224 330
-331 16
-331 -330
-16 330 331
331
